Name: Ing0405-2
Courses: 115
Rooms: 18
Days: 5
Periods_per_day: 5
Curricula: 67
Constraints: 694

COURSES:
c1001 t000 3 2 38
c1022 t001 3 3 3
c0103 t002 3 3 92
c1053 t003 3 2 15
c0106 t004 3 3 108
c0108 t005 3 3 70
c0110 t006 3 3 180
c0113 t007 3 3 117
c0115 t008 3 3 95
c0118 t009 3 3 20
c0119 t010 3 3 35
c0127 t011 3 3 70
c0129 t012 3 2 124
c0131 t013 3 3 124
c0132 t013 3 3 121
c0133 t014 3 2 121
c015a t015 2 2 15
c0152 t016 3 3 124
c0153 t017 3 3 121
c0019 t018 3 3 38
c0191 t019 3 2 88
c0193 t020 3 3 103
c0195 t021 3 3 113
c0020 t022 3 3 15
c0201 t023 3 2 130
c0203 t024 3 3 132
c0206 t025 3 3 113
c0211 t026 3 3 110
c0213 t027 3 3 110
c0217 t028 3 3 110
c0219 t029 3 2 90
c0221 t030 3 3 95
c0225 t031 3 3 75
c0023 t032 3 3 123
c0230 t033 3 3 130
c0232 t034 3 3 35
c0238 t035 3 3 110
c0024 t036 3 3 35
c0252 t037 3 2 114
c0253 t038 3 3 60
c0257 t039 3 3 160
c0279 t035 3 3 78
c0411 t040 3 3 6
c0412 t041 3 3 0
c0418 t028 3 3 0
c0423 t042 3 3 0
c0428 t041 3 3 0
c0430 t033 3 3 15
c0432 t031 3 3 0
c0044 t043 3 3 189
c0443 t012 3 3 0
c0444 t044 3 3 0
c0449 t038 3 3 0
c0455 t045 3 2 50
c0464 t046 3 3 66
c0467 t047 3 3 23
c0047 t048 3 3 89
c0478 t049 3 3 35
c0479 t050 3 3 15
c0487 t051 3 2 24
c0049 t050 3 3 73
c0497 t052 3 3 5
c0503 t053 3 3 29
c0504 t054 3 3 5
c0512 t055 3 3 45
c0515 t056 4 3 105
c0520 t004 3 3 63
c0526 t007 3 3 10
c0530 t055 3 3 15
c0532 t000 3 3 20
c0534 t057 3 3 8
c0535 t010 3 3 15
c0537 t058 3 3 8
c0538 t058 3 3 8
c0539 t059 3 3 15
c0554 t022 3 3 25
c0056 t021 3 3 76
c0058 t006 3 3 89
c0602 t060 3 3 29
c0061 t061 3 3 73
c0062 t001 3 3 73
c0069 t062 3 3 76
c0007 t063 3 3 20
c0072 t064 3 2 95
c0723 t065 3 3 10
c0730 t048 3 3 6
c0737 t020 3 3 24
c0074 t066 3 2 17
c0742 t067 3 3 55
c0746 t068 3 3 89
c0076 t052 3 3 27
c0785 t069 3 3 137
c0789 t070 3 3 3
c0794 t071 3 3 3
c0795 t070 3 3 6
c0804 t072 3 2 3
c0807 t073 3 3 3
c0808 t074 3 3 9
c0812 t075 5 4 6
c0822 t076 3 3 3
c0835 t077 3 3 9
c088a t015 4 4 55
c088b t015 1 1 70
c0897 t078 3 3 14
c0009 t028 3 3 23
c0932 t079 3 3 40
c0936 t069 3 3 30
c0095 t080 3 3 70
c0955 t081 7 1 46
c0963 t082 7 1 57
c0883 t083 7 1 18
c0975 t084 7 1 18
c0980 t085 7 1 46
c0983 t086 7 1 60
c0998 t087 3 3 65

ROOMS:
25	40
36	42
37	42
38	48
31	50
27	80
51	90
B	216
D	216
F	216
G	216
A	312
L	336
50	50
52	65
DS1	80
DS2	60
N	20

CURRICULA:
q000  3 c0095 c0108 c0127 
q001  4 c0103 c0110 c0113 c0785 
q002  4 c0106 c0115 c0118 c0998 
q003  4 c0106 c0115 c0119 c0998 
q005  4 c0106 c0115 c0723 c0998 
q006  3 c0211 c0213 c0238 
q007  4 c0007 c0009 c0230 c0023 
q008  3 c0230 c0023 c0217 
q009  3 c0009 c0023 c0019 
q010  5 c015a c088b c0019 c0020 c0024 
q011  5 c0019 c088a c088b c0221 c0253 
q012  3 c0044 c0056 c0069 
q013  3 c0047 c0058 c0746 
q014  4 c0049 c0061 c0062 c0742 
q015  4 c0049 c0061 c0062 c0074 
q016  4 c0049 c0061 c0062 c0076 
q017  4 c0049 c0061 c0062 c0072 
q019  4 c0217 c0219 c0023 c0230 
q020  4 c0217 c0219 c0230 c0897 
q021  5 c0221 c0225 c0232 c088a c088b 
q022  4 c0221 c0225 c0253 c0932 
q023  3 c0044 c0195 c0206 
q024  4 c0252 c0191 c0110 c0193 
q025  4 c0257 c0515 c0201 c0203 
q026  4 c0257 c0515 c0201 c0467 
q027  4 c0257 c0515 c0201 c0106 
q028  4 c0129 c0131 c0152 c0975 
q029  4 c0129 c0131 c0152 c0955 
q030  4 c0129 c0131 c0152 c0983 
q031  4 c0132 c0133 c0153 c0883 
q032  4 c0132 c0133 c0153 c0980 
q033  5 c0132 c0133 c0153 c0897 c0963 
q034  4 c0132 c0133 c0153 c0963 
q036  4 c0252 c0058 c0047 c0746 
q037  4 c0257 c0201 c0072 c0203 
q038  3 c0257 c0201 c0072 
q039  4 c0257 c0201 c0072 c0279 
q040  5 c0455 c0478 c0602 c0503 c0203 
q041  6 c0455 c0478 c0602 c0503 c0279 c0203 
q042  5 c0115 c0279 c0455 c0106 c0203 
q043  5 c0115 c0279 c0455 c0467 c0203 
q044  3 c0464 c0076 c0279 
q045  2 c0464 c0076 
q046  4 c0464 c0072 c0520 c0113 
q047  2 c0464 c0554 
q048  6 c0411 c0412 c088a c088b c0418 c0932 
q049  6 c0411 c0432 c0232 c088a c088b c0443 
q050  5 c0423 c0428 c0430 c0253 c0432 
q051  4 c0444 c0423 c0430 c0449 
q052  4 c0478 c0479 c0074 c0742 
q053  5 c0478 c0479 c0076 c0497 c0742 
q054  5 c0478 c0479 c0072 c0504 c0742 
q055  4 c0487 c0737 c0730 c1053 
q056  4 c0487 c0737 c1053 c0279 
q057  4 c0487 c0737 c0503 c0279 
q058  5 c0512 c0785 c0193 c0515 c0936 
q059  4 c0512 c0785 c0430 c0530 
q060  5 c0512 c0785 c0535 c0539 c0936 
q061  5 c0520 c1001 c0072 c0257 c0526 
q062  5 c0520 c1001 c0257 c0024 c0532 
q063  5 c0520 c1001 c0534 c0537 c0538 
q064  6 c0602 c0794 c0795 c0467 c0835 c1022 
q065  4 c0602 c0812 c0835 c0411 
q066  5 c0602 c0795 c0411 c0835 c0812 
q067  3 c0804 c0807 c0808 
q068  2 c0808 c0822 
q069  2 c0789 c0808 

UNAVAILABILITY_CONSTRAINTS:
c0103 0 0
c0103 0 1
c0103 0 2
c0103 0 3
c0103 0 4
c0103 1 2
c0103 2 2
c0103 3 2
c0103 4 2
c1053 0 0
c1053 0 1
c1053 0 2
c1053 0 3
c1053 0 4
c1053 2 4
c1053 3 0
c1053 3 1
c1053 3 2
c1053 3 3
c1053 3 4
c1053 4 0
c1053 4 1
c1053 4 2
c1053 4 3
c1053 4 4
c0106 0 0
c0106 0 1
c0106 0 2
c0106 0 3
c0106 0 4
c0106 1 0
c0106 2 0
c0106 3 0
c0108 0 0
c0108 0 1
c0108 0 2
c0108 0 3
c0108 1 0
c0108 1 3
c0108 1 4
c0108 2 0
c0108 2 4
c0108 3 0
c0108 3 4
c0108 4 0
c0108 4 1
c0108 4 2
c0108 4 3
c0108 4 4
c0110 0 0
c0110 1 0
c0110 2 0
c0110 2 1
c0110 2 2
c0110 2 3
c0110 2 4
c0110 3 0
c0110 3 1
c0110 3 2
c0110 3 3
c0110 3 4
c0110 4 0
c0113 0 0
c0113 0 1
c0113 0 2
c0113 0 3
c0113 0 4
c0115 0 0
c0115 0 1
c0115 3 0
c0115 3 1
c0115 3 2
c0115 3 3
c0115 3 4
c0115 4 0
c0115 4 1
c0115 4 2
c0115 4 3
c0118 0 0
c0118 0 1
c0118 0 2
c0118 0 3
c0118 0 4
c0118 4 2
c0118 4 3
c0118 4 4
c0119 0 0
c0119 0 4
c0119 1 0
c0119 1 4
c0119 2 0
c0119 2 1
c0119 2 2
c0119 2 3
c0119 2 4
c0119 3 0
c0119 3 4
c0119 4 0
c0119 4 4
c0127 1 3
c0127 1 4
c0127 2 4
c0127 3 4
c0127 4 0
c0127 4 1
c0127 4 2
c0127 4 3
c0127 4 4
c0129 0 0
c0129 0 1
c0129 0 2
c0129 0 3
c0129 0 4
c0129 1 0
c0129 1 1
c0129 1 2
c0129 4 4
c0131 4 4
c0133 2 0
c0133 2 4
c0133 3 0
c0133 3 4
c0133 4 0
c0133 4 4
c015a 0 2
c015a 1 2
c015a 1 3
c015a 2 2
c015a 3 2
c015a 3 3
c015a 4 0
c015a 4 1
c015a 4 2
c015a 4 3
c015a 4 4
c0152 0 2
c0152 0 3
c0152 0 4
c0152 1 2
c0152 1 3
c0152 1 4
c0152 2 2
c0152 2 3
c0152 2 4
c0152 3 2
c0152 3 3
c0152 3 4
c0152 4 2
c0152 4 3
c0152 4 4
c0153 0 0
c0153 0 1
c0153 1 0
c0153 1 1
c0153 2 0
c0153 2 1
c0153 4 3
c0153 4 4
c0191 0 0
c0191 0 1
c0191 0 2
c0191 4 0
c0191 4 1
c0191 4 2
c0191 4 3
c0191 4 4
c0193 0 0
c0193 0 1
c0193 0 2
c0193 0 3
c0193 0 4
c0193 4 0
c0193 4 3
c0193 4 4
c0195 0 4
c0195 1 3
c0195 1 4
c0195 2 3
c0195 2 4
c0195 3 0
c0195 3 1
c0195 3 2
c0195 3 3
c0195 3 4
c0195 4 4
c0020 0 0
c0020 0 1
c0020 0 2
c0020 1 0
c0020 2 0
c0020 3 0
c0020 4 3
c0020 4 4
c0201 1 0
c0201 1 1
c0201 1 2
c0201 1 3
c0201 1 4
c0201 2 0
c0201 2 1
c0201 2 2
c0201 2 3
c0201 2 4
c0201 3 0
c0201 3 1
c0201 3 2
c0201 3 3
c0201 3 4
c0203 0 0
c0203 3 0
c0203 4 0
c0203 4 1
c0203 4 2
c0203 4 3
c0203 4 4
c0206 0 4
c0206 1 3
c0206 1 4
c0206 2 2
c0206 2 3
c0206 2 4
c0206 3 0
c0206 3 1
c0206 3 2
c0206 3 3
c0206 3 4
c0206 4 4
c0211 0 2
c0211 1 2
c0211 2 2
c0211 3 2
c0211 4 1
c0211 4 2
c0211 4 3
c0211 4 4
c0213 0 3
c0213 0 4
c0213 2 3
c0213 2 4
c0213 4 3
c0213 4 4
c0219 0 0
c0219 0 1
c0219 0 2
c0219 4 0
c0219 4 1
c0219 4 2
c0219 4 3
c0219 4 4
c0023 0 0
c0023 0 1
c0023 0 2
c0023 0 3
c0023 0 4
c0023 1 2
c0023 1 3
c0023 1 4
c0023 2 2
c0023 2 3
c0023 2 4
c0023 3 2
c0023 3 3
c0023 3 4
c0023 4 0
c0023 4 1
c0023 4 2
c0023 4 3
c0023 4 4
c0232 0 0
c0232 0 2
c0232 1 2
c0232 2 2
c0232 3 0
c0232 3 2
c0232 4 0
c0232 4 2
c0024 0 0
c0024 0 1
c0024 0 2
c0024 1 0
c0024 2 0
c0024 3 0
c0024 4 0
c0024 4 4
c0252 0 0
c0252 0 1
c0252 0 2
c0252 0 3
c0252 0 4
c0252 4 2
c0252 4 3
c0252 4 4
c0253 0 0
c0253 1 0
c0253 2 0
c0253 3 0
c0253 4 0
c0257 0 0
c0257 0 1
c0257 0 2
c0257 0 3
c0257 0 4
c0257 1 0
c0257 4 0
c0257 4 1
c0257 4 2
c0257 4 3
c0257 4 4
c0279 0 4
c0279 1 4
c0279 2 4
c0279 3 4
c0279 4 4
c0411 0 0
c0411 0 1
c0411 0 2
c0411 0 3
c0411 0 4
c0411 1 0
c0411 1 1
c0411 1 2
c0423 0 2
c0423 1 2
c0423 2 2
c0423 3 2
c0423 3 4
c0423 4 2
c0423 4 3
c0423 4 4
c0044 0 0
c0044 1 0
c0044 2 0
c0044 3 0
c0044 4 0
c0044 4 1
c0044 4 2
c0044 4 3
c0443 0 0
c0443 0 1
c0443 0 2
c0443 0 3
c0443 0 4
c0443 4 2
c0443 4 3
c0443 4 4
c0449 0 0
c0449 1 0
c0449 2 0
c0449 3 0
c0449 4 0
c0455 1 0
c0455 1 1
c0455 1 2
c0455 2 0
c0455 2 1
c0455 2 2
c0455 2 3
c0455 2 4
c0467 0 2
c0467 1 2
c0467 2 2
c0467 3 2
c0467 4 2
c0047 0 0
c0047 0 1
c0047 0 2
c0047 0 3
c0047 0 4
c0047 1 0
c0047 1 1
c0047 4 3
c0047 4 4
c0478 0 2
c0478 0 3
c0478 0 4
c0478 2 2
c0478 2 3
c0478 2 4
c0479 0 0
c0479 0 1
c0479 0 2
c0479 0 3
c0479 0 4
c0479 4 2
c0479 4 3
c0479 4 4
c0487 0 0
c0487 0 1
c0487 0 2
c0487 0 3
c0487 0 4
c0487 1 0
c0487 1 1
c0487 1 2
c0487 1 3
c0487 1 4
c0487 2 0
c0487 2 1
c0487 2 2
c0487 2 3
c0487 2 4
c0487 3 0
c0487 3 1
c0487 4 0
c0487 4 1
c0049 0 0
c0049 0 1
c0049 0 2
c0049 0 3
c0049 0 4
c0049 4 2
c0049 4 3
c0049 4 4
c0497 0 0
c0497 0 4
c0497 1 0
c0497 1 4
c0497 2 0
c0497 2 4
c0497 3 0
c0497 3 4
c0497 4 0
c0497 4 4
c0503 0 0
c0503 0 1
c0503 0 2
c0503 0 3
c0503 0 4
c0503 1 0
c0503 1 1
c0503 1 2
c0504 0 0
c0504 0 1
c0504 0 2
c0504 0 3
c0504 0 4
c0504 4 0
c0504 4 1
c0504 4 2
c0504 4 3
c0504 4 4
c0515 0 3
c0515 0 4
c0515 2 2
c0515 2 3
c0515 2 4
c0515 4 2
c0515 4 3
c0515 4 4
c0520 0 0
c0520 0 1
c0520 0 2
c0520 0 3
c0520 0 4
c0520 1 0
c0520 2 0
c0520 3 0
c0526 0 0
c0526 0 1
c0526 0 2
c0526 0 3
c0526 0 4
c0532 0 2
c0532 1 2
c0532 1 3
c0532 1 4
c0532 2 2
c0532 2 3
c0532 2 4
c0532 4 2
c0534 0 0
c0534 0 1
c0534 0 2
c0534 0 3
c0534 0 4
c0534 4 0
c0534 4 1
c0534 4 2
c0534 4 3
c0534 4 4
c0535 0 0
c0535 0 4
c0535 1 0
c0535 1 4
c0535 2 0
c0535 2 1
c0535 2 2
c0535 2 3
c0535 2 4
c0535 3 0
c0535 3 4
c0535 4 0
c0535 4 4
c0554 0 0
c0554 0 1
c0554 0 2
c0554 1 0
c0554 2 0
c0554 3 0
c0554 4 3
c0554 4 4
c0056 1 4
c0056 2 0
c0056 2 1
c0056 2 2
c0056 2 3
c0056 2 4
c0056 3 3
c0056 3 4
c0056 4 3
c0056 4 4
c0058 0 0
c0058 1 0
c0058 3 0
c0058 3 1
c0058 3 2
c0058 3 3
c0058 3 4
c0058 4 0
c0602 0 2
c0602 1 2
c0602 2 2
c0602 3 0
c0602 3 1
c0602 3 2
c0602 3 3
c0602 3 4
c0602 4 0
c0602 4 1
c0602 4 2
c0602 4 3
c0602 4 4
c0061 0 0
c0061 0 1
c0061 0 2
c0061 1 0
c0061 1 2
c0061 1 3
c0061 2 0
c0061 4 0
c0062 0 0
c0062 0 1
c0062 0 2
c0062 0 3
c0062 0 4
c0062 1 0
c0062 4 0
c0062 4 4
c0069 0 4
c0069 1 4
c0069 2 0
c0069 2 1
c0069 2 2
c0069 2 3
c0069 2 4
c0069 3 2
c0069 3 3
c0069 3 4
c0069 4 3
c0069 4 4
c0007 0 0
c0007 0 1
c0007 0 2
c0007 0 3
c0007 0 4
c0007 1 2
c0007 2 2
c0007 3 2
c0072 0 0
c0072 0 1
c0072 0 2
c0072 0 3
c0072 0 4
c0072 1 0
c0072 1 1
c0072 1 2
c0072 1 3
c0072 1 4
c0072 4 4
c0723 1 0
c0723 1 1
c0723 1 2
c0723 1 3
c0723 1 4
c0723 2 3
c0723 3 3
c0723 3 4
c0730 0 0
c0730 0 1
c0730 0 2
c0730 0 3
c0730 0 4
c0730 1 0
c0730 1 1
c0730 4 3
c0730 4 4
c0737 0 0
c0737 0 1
c0737 0 2
c0737 0 3
c0737 0 4
c0737 4 0
c0737 4 3
c0737 4 4
c0742 0 0
c0742 0 1
c0742 0 2
c0742 0 3
c0742 4 1
c0742 4 2
c0742 4 3
c0742 4 4
c0076 0 0
c0076 0 4
c0076 1 0
c0076 1 4
c0076 2 0
c0076 2 4
c0076 3 0
c0076 3 4
c0076 4 0
c0076 4 4
c0785 0 0
c0785 0 1
c0785 2 0
c0785 2 1
c0785 2 2
c0785 2 3
c0785 2 4
c0785 4 4
c0804 3 2
c0804 3 3
c0804 3 4
c0804 4 0
c0804 4 1
c0804 4 2
c0804 4 3
c0804 4 4
c0807 0 0
c0807 0 4
c0807 1 0
c0807 1 4
c0807 2 0
c0807 3 0
c0807 4 0
c0807 4 4
c0808 0 0
c0808 0 1
c0808 0 2
c0808 1 2
c0808 3 2
c0808 4 0
c0808 4 1
c0808 4 2
c088a 0 2
c088a 1 2
c088a 1 3
c088a 2 2
c088a 3 2
c088a 3 3
c088a 4 0
c088a 4 1
c088a 4 2
c088a 4 3
c088a 4 4
c0936 0 0
c0936 0 1
c0936 2 0
c0936 2 1
c0936 2 2
c0936 2 3
c0936 2 4
c0936 4 4
c0095 1 3
c0095 1 4
c0095 2 4
c0095 3 0
c0095 3 1
c0095 3 2
c0095 3 3
c0095 3 4
c0095 4 0
c0095 4 1
c0095 4 2
c0095 4 3
c0095 4 4
c0998 0 0
c0998 0 1
c0998 0 2
c0998 0 3
c0998 0 4
c0998 4 2
c0998 4 3
c0998 4 4

END.
